(set-logic UFDT)
(declare-datatypes ((nat 0)) (((zero) (s (s0 nat)))))
(declare-fun add (nat nat) nat)
(declare-fun leq (nat nat) Bool)
(assert (forall ((y nat)) (= (add zero y) y)))
(assert (forall ((x nat) (y nat)) (= (add (s x) y) (s (add x y)))))
(assert (forall ((y nat)) (leq zero y)))
(assert (forall ((x nat)) (not (leq (s x) zero))))
(assert (forall ((x nat) (y nat)) (= (leq (s x) (s y)) (leq x y))))
(assert (not (forall ((v0 nat) (v1 nat) (v2 nat) (v3 nat) (v4 nat) (v5 nat) (v6 nat) (v7 nat) (v8 nat)) (= (s (s (s (add (s (s (add (s v6) (add (add (add (s v8) v4) v7) (s (add (s v3) (s (add v5 (s v2))))))))) (s (add (add v0 (s v5)) (s v1))))))) (add (s (add (s (add (s v4) (s (add (add v7 v8) (add (add v1 (s (s (add (s (s (s v5))) (s (s v2)))))) (s (s (add (s v6) v0)))))))) v5)) v3)))))
(check-sat)
